%mem=12000MB
%nprocshared=16
%mem=32Gb
%chk=potassium-ion.chk
#P MP2/gen Opt=tight  density=MP2 Pop=(MK,Hirshfeld,ReadRadii) iop(6/33=2) iop(6/42=6)
maxdisk=128GB
            
potassium-ion

1 1
K          0.00000        0.00000        0.00000

-K     0
S    8   1.00
 153976.1832500              0.23662636107D-03
  23082.4976720              0.18342929137D-02
   5253.2344745              0.95310527769D-02
   1486.9550133              0.38638406980D-01
    484.06333726             0.12480768502
    173.56653980             0.29278861009
     67.116381464            0.40633425860
     26.339502054            0.20077215860
S    4   1.00
    172.87693567            -0.24200960936D-01
     53.058649063           -0.11553095040
      7.9212753964           0.57455545175
      3.2108880472           0.57023185107
S    2   1.00
      4.5662070895          -0.22615763466
      0.70209907282          0.75528392045
S    1   1.00
      0.28258942635          1.0000000
S    1   1.00
      0.35805824617D-01      1.0000000
S    1   1.00
      0.15819213245D-01      1.0000000
P    6   1.00
    728.18449873             0.26150689792D-02
    172.13265061             0.20673630835D-01
     54.829847075            0.93205603870D-01
     20.166266494            0.25436518210
      7.8610728806           0.39131132810
      3.1105213132           0.22481345943
P    3   1.00
     11.757337492           -0.25777289217D-01
      1.5139617411           0.57359428604
      0.58328591795          1.0798320002
P    1   1.00
      0.21570478076          1.0000000
P    1   1.00
      0.0417370              1.0000000
D    1   1.00
      0.9300000              1.0000000
D    1   1.00
      0.1800000              1.0000000
D    1   1.00
      0.0540000              1.0000000
****

 K 1.9
 K 1.9

